30	100	100	100
70	16	85
90	17	92
68	7	70
83	9	86
76	7	83
71	32	78
75	1	89
98	39	66
87	6	74
80	9	68
66	48	91
77	38	94
79	25	74
71	38	69
69	33	93
90	2	89
94	13	96
89	24	96
84	21	96
98	28	82
71	40	86
95	10	66
67	46	73
98	19	79
99	3	99
69	20	71
76	29	82
79	17	99
70	44	92
72	6	98
